p cnf 498 1528
a 2 3 4 5 6 7 8 12 17 19 24 29 34 37 38 45 46 50 54 55 58 62 66 68 70 72 74 75 79 83 85 89 93 98 100 104 106 107 0
e 1 9 10 11 13 14 15 16 18 20 21 22 23 25 26 27 28 30 31 32 33 35 36 39 40 41 42 43 44 47 48 49 51 52 53 56 57 59 60 61 63 64 65 67 69 71 73 76 77 78 80 81 82 84 86 87 88 90 91 92 94 95 96 97 99 101 102 103 105 108 109 110 111 112 113 114 115 116 117 118 119 120 121 122 123 124 125 126 127 128 129 130 131 132 133 134 135 136 137 138 139 140 141 142 143 144 145 146 147 148 149 150 151 152 153 154 155 156 157 158 159 160 161 162 163 164 165 166 167 168 169 170 171 172 173 174 175 176 177 178 179 180 181 182 183 184 185 186 187 188 189 190 191 192 193 194 195 196 197 198 199 200 201 202 203 204 205 206 207 208 209 210 211 212 213 214 215 216 217 218 219 220 221 222 223 224 225 226 227 228 229 230 231 232 233 234 235 236 237 238 239 240 241 242 243 244 245 246 247 248 249 250 251 252 253 254 255 256 257 258 259 260 261 262 263 264 265 266 267 268 269 270 271 272 273 274 275 276 277 278 279 280 281 282 283 284 285 286 287 288 289 290 291 292 293 294 295 296 297 298 299 300 301 302 303 304 305 306 307 308 309 310 311 312 313 314 315 316 317 318 319 320 321 322 323 324 325 326 327 328 329 330 331 332 333 334 335 336 337 338 339 340 341 342 343 344 345 346 347 348 349 350 351 352 353 354 355 356 357 358 359 360 361 362 363 364 365 366 367 368 369 370 371 372 373 374 375 376 377 378 379 380 381 382 383 384 385 386 387 388 389 390 391 392 393 394 395 396 397 398 399 400 401 402 403 404 405 406 407 408 409 410 411 412 413 414 415 416 417 418 419 420 421 422 423 424 425 426 427 428 429 430 431 432 433 434 435 436 437 438 439 440 441 442 443 444 445 446 447 448 449 450 451 452 453 454 455 456 457 458 459 460 461 462 463 464 465 466 467 468 469 470 471 472 473 474 475 476 477 478 479 480 481 482 483 484 485 486 487 488 489 490 491 492 493 494 495 496 497 498 0
1 0
7 -9 0
8 -9 0
-7 -8 9 0
7 -10 0
-8 -10 0
-7 8 10 0
7 11 0
-9 11 0
-10 11 0
-7 9 10 -11 0
-12 13 0
12 13 0
6 -14 0
11 -14 0
13 -14 0
-6 -11 -13 14 0
-6 -15 0
11 -15 0
6 -11 15 0
-14 16 0
-15 16 0
14 15 -16 0
-17 18 0
17 18 0
-19 20 0
19 20 0
5 -21 0
16 -21 0
18 -21 0
20 -21 0
-5 -16 -18 -20 21 0
-5 -22 0
16 -22 0
18 -22 0
5 -16 -18 22 0
-21 23 0
-22 23 0
21 22 -23 0
24 25 0
-24 25 0
4 -26 0
23 -26 0
25 -26 0
-4 -23 -25 26 0
-4 -27 0
23 -27 0
4 -23 27 0
-26 28 0
-27 28 0
26 27 -28 0
29 30 0
-29 30 0
3 -31 0
28 -31 0
30 -31 0
-3 -28 -30 31 0
-3 -32 0
28 -32 0
3 -28 32 0
-31 33 0
-32 33 0
31 32 -33 0
34 35 0
-34 35 0
2 -36 0
33 -36 0
35 -36 0
-2 -33 -35 36 0
38 39 0
-38 39 0
37 -40 0
33 -40 0
39 -40 0
-37 -33 -39 40 0
-37 -41 0
33 -41 0
37 -33 41 0
-40 42 0
-41 42 0
40 41 -42 0
-2 -43 0
42 -43 0
2 -42 43 0
-36 44 0
-43 44 0
36 43 -44 0
45 -47 0
46 -47 0
-45 -46 47 0
45 -48 0
-46 -48 0
-45 46 48 0
-47 49 0
-48 49 0
47 48 -49 0
49 -51 0
50 -51 0
-49 -50 51 0
49 -52 0
-50 -52 0
-49 50 52 0
-51 53 0
-52 53 0
51 52 -53 0
53 -56 0
-54 -56 0
55 -56 0
-53 54 -55 56 0
53 -57 0
-54 -57 0
-55 -57 0
-53 54 55 57 0
53 -59 0
54 -59 0
58 -59 0
-53 -54 -58 59 0
53 -60 0
54 -60 0
-58 -60 0
-53 -54 58 60 0
-56 61 0
-57 61 0
-59 61 0
-60 61 0
56 57 59 60 -61 0
61 -63 0
62 -63 0
-61 -62 63 0
61 -64 0
-62 -64 0
-61 62 64 0
-63 65 0
-64 65 0
63 64 -65 0
65 -67 0
66 -67 0
-65 -66 67 0
65 -69 0
-66 -69 0
68 -69 0
-65 66 -68 69 0
65 -71 0
-66 -71 0
-68 -71 0
70 -71 0
-65 66 68 -70 71 0
65 -73 0
-66 -73 0
-68 -73 0
-70 -73 0
72 -73 0
-65 66 68 70 -72 73 0
65 -76 0
-66 -76 0
-68 -76 0
-70 -76 0
-72 -76 0
74 -76 0
75 -76 0
-65 66 68 70 72 -74 -75 76 0
65 -77 0
-66 -77 0
-68 -77 0
-70 -77 0
-72 -77 0
74 -77 0
-75 -77 0
-65 66 68 70 72 -74 75 77 0
-76 78 0
-77 78 0
76 77 -78 0
78 -80 0
79 -80 0
-78 -79 80 0
78 -81 0
-79 -81 0
-78 79 81 0
-80 82 0
-81 82 0
80 81 -82 0
82 -84 0
83 -84 0
-82 -83 84 0
65 -86 0
-66 -86 0
-68 -86 0
-70 -86 0
-72 -86 0
-74 -86 0
85 -86 0
-65 66 68 70 72 74 -85 86 0
65 -87 0
-66 -87 0
-68 -87 0
-70 -87 0
-72 -87 0
-74 -87 0
-85 -87 0
-65 66 68 70 72 74 85 87 0
-86 88 0
-87 88 0
86 87 -88 0
88 -90 0
89 -90 0
-88 -89 90 0
88 -91 0
-89 -91 0
-88 89 91 0
-90 92 0
-91 92 0
90 91 -92 0
92 -94 0
93 -94 0
-92 -93 94 0
82 -95 0
-83 -95 0
-82 83 95 0
92 -96 0
-93 -96 0
-92 93 96 0
-84 97 0
-94 97 0
-95 97 0
-96 97 0
84 94 95 96 -97 0
97 -99 0
-98 -99 0
-97 98 99 0
97 -101 0
98 -101 0
100 -101 0
-97 -98 -100 101 0
97 -102 0
98 -102 0
-100 -102 0
-97 -98 100 102 0
45 103 0
-67 103 0
-69 103 0
-71 103 0
-73 103 0
-99 103 0
-101 103 0
-102 103 0
-45 67 69 71 73 99 101 102 -103 0
-104 105 0
104 105 0
-107 108 0
107 108 0
106 -109 0
108 -109 0
-106 -108 109 0
106 110 0
-109 110 0
-106 109 -110 0
44 -111 0
103 -111 0
105 -111 0
110 -111 0
-44 -103 -105 -110 111 0
-12 112 0
12 112 0
6 -113 0
112 -113 0
-6 -112 113 0
-113 114 0
6 114 0
113 -6 -114 0
114 -115 0
19 -115 0
-114 -19 115 0
114 -116 0
-19 -116 0
-114 19 116 0
-115 117 0
-116 117 0
115 116 -117 0
5 -118 0
117 -118 0
-5 -117 118 0
-5 -119 0
114 -119 0
5 -114 119 0
-118 120 0
-119 120 0
118 119 -120 0
120 -121 0
-24 -121 0
-120 24 121 0
120 -122 0
24 -122 0
-120 -24 122 0
-121 123 0
-122 123 0
121 122 -123 0
4 -124 0
123 -124 0
-4 -123 124 0
-4 -125 0
120 -125 0
4 -120 125 0
-124 126 0
-125 126 0
124 125 -126 0
126 -127 0
-29 -127 0
-126 29 127 0
126 -128 0
29 -128 0
-126 -29 128 0
-127 129 0
-128 129 0
127 128 -129 0
3 -130 0
129 -130 0
-3 -129 130 0
-3 -131 0
126 -131 0
3 -126 131 0
-130 132 0
-131 132 0
130 131 -132 0
132 -133 0
-34 -133 0
-132 34 133 0
132 -134 0
34 -134 0
-132 -34 134 0
-133 135 0
-134 135 0
133 134 -135 0
2 -136 0
135 -136 0
-2 -135 136 0
132 -137 0
-38 -137 0
-132 38 137 0
132 -138 0
38 -138 0
-132 -38 138 0
-137 139 0
-138 139 0
137 138 -139 0
37 -140 0
139 -140 0
-37 -139 140 0
-37 -141 0
132 -141 0
37 -132 141 0
-140 142 0
-141 142 0
140 141 -142 0
-2 -143 0
142 -143 0
2 -142 143 0
-136 144 0
-143 144 0
136 143 -144 0
144 -145 0
-45 -145 0
-144 45 145 0
144 -146 0
45 -146 0
46 -146 0
-144 -45 -46 146 0
144 -147 0
45 -147 0
-46 -147 0
-144 -45 46 147 0
-146 148 0
-147 148 0
146 147 -148 0
148 -149 0
49 -149 0
50 -149 0
-148 -49 -50 149 0
148 -150 0
49 -150 0
-50 -150 0
-148 -49 50 150 0
-149 151 0
-150 151 0
149 150 -151 0
151 -152 0
61 -152 0
62 -152 0
-151 -61 -62 152 0
151 -153 0
61 -153 0
-62 -153 0
-151 -61 62 153 0
-152 154 0
-153 154 0
152 153 -154 0
-67 155 0
-69 155 0
-71 155 0
-73 155 0
67 69 71 73 -155 0
154 -156 0
155 -156 0
-154 -155 156 0
154 -157 0
65 -157 0
-66 -157 0
-68 -157 0
-70 -157 0
-72 -157 0
-74 -157 0
85 -157 0
-154 -65 66 68 70 72 74 -85 157 0
154 -158 0
65 -158 0
-66 -158 0
-68 -158 0
-70 -158 0
-72 -158 0
-74 -158 0
-85 -158 0
-154 -65 66 68 70 72 74 85 158 0
-157 159 0
-158 159 0
157 158 -159 0
159 -160 0
88 -160 0
89 -160 0
-159 -88 -89 160 0
159 -161 0
88 -161 0
-89 -161 0
-159 -88 89 161 0
-160 162 0
-161 162 0
160 161 -162 0
162 -163 0
92 -163 0
93 -163 0
-162 -92 -93 163 0
162 -164 0
92 -164 0
-93 -164 0
-162 -92 93 164 0
154 -165 0
65 -165 0
-66 -165 0
-68 -165 0
-70 -165 0
-72 -165 0
74 -165 0
75 -165 0
-154 -65 66 68 70 72 -74 -75 165 0
154 -166 0
65 -166 0
-66 -166 0
-68 -166 0
-70 -166 0
-72 -166 0
74 -166 0
-75 -166 0
-154 -65 66 68 70 72 -74 75 166 0
-165 167 0
-166 167 0
165 166 -167 0
167 -168 0
78 -168 0
79 -168 0
-167 -78 -79 168 0
167 -169 0
78 -169 0
-79 -169 0
-167 -78 79 169 0
-168 170 0
-169 170 0
168 169 -170 0
170 -171 0
82 -171 0
83 -171 0
-170 -82 -83 171 0
170 -172 0
82 -172 0
-83 -172 0
-170 -82 83 172 0
-163 173 0
-164 173 0
-171 173 0
-172 173 0
163 164 171 172 -173 0
-101 174 0
-102 174 0
101 102 -174 0
-99 175 0
-174 175 0
99 174 -175 0
173 -176 0
175 -176 0
-173 -175 176 0
-145 177 0
-156 177 0
-176 177 0
145 156 176 -177 0
177 -178 0
106 -178 0
108 -178 0
-177 -106 -108 178 0
177 -179 0
-106 -179 0
-177 106 179 0
-178 180 0
-179 180 0
178 179 -180 0
-12 181 0
12 181 0
6 -182 0
181 -182 0
-6 -181 182 0
-182 183 0
6 183 0
182 -6 -183 0
183 -184 0
19 -184 0
-183 -19 184 0
183 -185 0
-19 -185 0
-183 19 185 0
-184 186 0
-185 186 0
184 185 -186 0
5 -187 0
186 -187 0
-5 -186 187 0
-5 -188 0
183 -188 0
5 -183 188 0
-187 189 0
-188 189 0
187 188 -189 0
189 -190 0
-24 -190 0
-189 24 190 0
189 -191 0
24 -191 0
-189 -24 191 0
-190 192 0
-191 192 0
190 191 -192 0
4 -193 0
192 -193 0
-4 -192 193 0
-4 -194 0
189 -194 0
4 -189 194 0
-193 195 0
-194 195 0
193 194 -195 0
195 -196 0
-29 -196 0
-195 29 196 0
195 -197 0
29 -197 0
-195 -29 197 0
-196 198 0
-197 198 0
196 197 -198 0
3 -199 0
198 -199 0
-3 -198 199 0
-3 -200 0
195 -200 0
3 -195 200 0
-199 201 0
-200 201 0
199 200 -201 0
201 -202 0
-34 -202 0
-201 34 202 0
201 -203 0
34 -203 0
-201 -34 203 0
-202 204 0
-203 204 0
202 203 -204 0
2 -205 0
204 -205 0
-2 -204 205 0
201 -206 0
-38 -206 0
-201 38 206 0
201 -207 0
38 -207 0
-201 -38 207 0
-206 208 0
-207 208 0
206 207 -208 0
37 -209 0
208 -209 0
-37 -208 209 0
-37 -210 0
201 -210 0
37 -201 210 0
-209 211 0
-210 211 0
209 210 -211 0
-2 -212 0
211 -212 0
2 -211 212 0
-205 213 0
-212 213 0
205 212 -213 0
213 -214 0
-45 -214 0
-213 45 214 0
213 -215 0
45 -215 0
46 -215 0
-213 -45 -46 215 0
213 -216 0
45 -216 0
-46 -216 0
-213 -45 46 216 0
-215 217 0
-216 217 0
215 216 -217 0
217 -218 0
49 -218 0
50 -218 0
-217 -49 -50 218 0
217 -219 0
49 -219 0
-50 -219 0
-217 -49 50 219 0
-218 220 0
-219 220 0
218 219 -220 0
220 -221 0
61 -221 0
62 -221 0
-220 -61 -62 221 0
220 -222 0
61 -222 0
-62 -222 0
-220 -61 62 222 0
-221 223 0
-222 223 0
221 222 -223 0
-67 224 0
-69 224 0
-71 224 0
-73 224 0
67 69 71 73 -224 0
223 -225 0
224 -225 0
-223 -224 225 0
223 -226 0
65 -226 0
-66 -226 0
-68 -226 0
-70 -226 0
-72 -226 0
-74 -226 0
85 -226 0
-223 -65 66 68 70 72 74 -85 226 0
223 -227 0
65 -227 0
-66 -227 0
-68 -227 0
-70 -227 0
-72 -227 0
-74 -227 0
-85 -227 0
-223 -65 66 68 70 72 74 85 227 0
-226 228 0
-227 228 0
226 227 -228 0
228 -229 0
88 -229 0
89 -229 0
-228 -88 -89 229 0
228 -230 0
88 -230 0
-89 -230 0
-228 -88 89 230 0
-229 231 0
-230 231 0
229 230 -231 0
231 -232 0
92 -232 0
93 -232 0
-231 -92 -93 232 0
231 -233 0
92 -233 0
-93 -233 0
-231 -92 93 233 0
223 -234 0
65 -234 0
-66 -234 0
-68 -234 0
-70 -234 0
-72 -234 0
74 -234 0
75 -234 0
-223 -65 66 68 70 72 -74 -75 234 0
223 -235 0
65 -235 0
-66 -235 0
-68 -235 0
-70 -235 0
-72 -235 0
74 -235 0
-75 -235 0
-223 -65 66 68 70 72 -74 75 235 0
-234 236 0
-235 236 0
234 235 -236 0
236 -237 0
78 -237 0
79 -237 0
-236 -78 -79 237 0
236 -238 0
78 -238 0
-79 -238 0
-236 -78 79 238 0
-237 239 0
-238 239 0
237 238 -239 0
239 -240 0
82 -240 0
83 -240 0
-239 -82 -83 240 0
239 -241 0
82 -241 0
-83 -241 0
-239 -82 83 241 0
-232 242 0
-233 242 0
-240 242 0
-241 242 0
232 233 240 241 -242 0
-99 243 0
-174 243 0
99 174 -243 0
242 -244 0
243 -244 0
-242 -243 244 0
-214 245 0
-225 245 0
-244 245 0
214 225 244 -245 0
245 -246 0
106 -246 0
108 -246 0
-245 -106 -108 246 0
245 -247 0
-106 -247 0
-245 106 247 0
-246 248 0
-247 248 0
246 247 -248 0
254 -256 0
255 -256 0
-254 -255 256 0
254 -257 0
-255 -257 0
-254 255 257 0
254 258 0
-256 258 0
-257 258 0
-254 256 257 -258 0
-259 260 0
259 260 0
253 -261 0
258 -261 0
260 -261 0
-253 -258 -260 261 0
-253 -262 0
258 -262 0
253 -258 262 0
-261 263 0
-262 263 0
261 262 -263 0
-264 265 0
264 265 0
-266 267 0
266 267 0
252 -268 0
263 -268 0
265 -268 0
267 -268 0
-252 -263 -265 -267 268 0
-252 -269 0
263 -269 0
265 -269 0
252 -263 -265 269 0
-268 270 0
-269 270 0
268 269 -270 0
271 272 0
-271 272 0
251 -273 0
270 -273 0
272 -273 0
-251 -270 -272 273 0
-251 -274 0
270 -274 0
251 -270 274 0
-273 275 0
-274 275 0
273 274 -275 0
276 277 0
-276 277 0
250 -278 0
275 -278 0
277 -278 0
-250 -275 -277 278 0
-250 -279 0
275 -279 0
250 -275 279 0
-278 280 0
-279 280 0
278 279 -280 0
281 282 0
-281 282 0
249 -283 0
280 -283 0
282 -283 0
-249 -280 -282 283 0
285 286 0
-285 286 0
284 -287 0
280 -287 0
286 -287 0
-284 -280 -286 287 0
-284 -288 0
280 -288 0
284 -280 288 0
-287 289 0
-288 289 0
287 288 -289 0
-249 -290 0
289 -290 0
249 -289 290 0
-283 291 0
-290 291 0
283 290 -291 0
292 -294 0
293 -294 0
-292 -293 294 0
292 -295 0
-293 -295 0
-292 293 295 0
-294 296 0
-295 296 0
294 295 -296 0
296 -298 0
297 -298 0
-296 -297 298 0
296 -299 0
-297 -299 0
-296 297 299 0
-298 300 0
-299 300 0
298 299 -300 0
300 -303 0
-301 -303 0
302 -303 0
-300 301 -302 303 0
300 -304 0
-301 -304 0
-302 -304 0
-300 301 302 304 0
300 -306 0
301 -306 0
305 -306 0
-300 -301 -305 306 0
300 -307 0
301 -307 0
-305 -307 0
-300 -301 305 307 0
-303 308 0
-304 308 0
-306 308 0
-307 308 0
303 304 306 307 -308 0
308 -310 0
309 -310 0
-308 -309 310 0
308 -311 0
-309 -311 0
-308 309 311 0
-310 312 0
-311 312 0
310 311 -312 0
312 -314 0
313 -314 0
-312 -313 314 0
312 -316 0
-313 -316 0
315 -316 0
-312 313 -315 316 0
312 -318 0
-313 -318 0
-315 -318 0
317 -318 0
-312 313 315 -317 318 0
312 -320 0
-313 -320 0
-315 -320 0
-317 -320 0
319 -320 0
-312 313 315 317 -319 320 0
312 -323 0
-313 -323 0
-315 -323 0
-317 -323 0
-319 -323 0
321 -323 0
322 -323 0
-312 313 315 317 319 -321 -322 323 0
312 -324 0
-313 -324 0
-315 -324 0
-317 -324 0
-319 -324 0
321 -324 0
-322 -324 0
-312 313 315 317 319 -321 322 324 0
-323 325 0
-324 325 0
323 324 -325 0
325 -327 0
326 -327 0
-325 -326 327 0
325 -328 0
-326 -328 0
-325 326 328 0
-327 329 0
-328 329 0
327 328 -329 0
329 -331 0
330 -331 0
-329 -330 331 0
312 -333 0
-313 -333 0
-315 -333 0
-317 -333 0
-319 -333 0
-321 -333 0
332 -333 0
-312 313 315 317 319 321 -332 333 0
312 -334 0
-313 -334 0
-315 -334 0
-317 -334 0
-319 -334 0
-321 -334 0
-332 -334 0
-312 313 315 317 319 321 332 334 0
-333 335 0
-334 335 0
333 334 -335 0
335 -337 0
336 -337 0
-335 -336 337 0
335 -338 0
-336 -338 0
-335 336 338 0
-337 339 0
-338 339 0
337 338 -339 0
339 -341 0
340 -341 0
-339 -340 341 0
329 -342 0
-330 -342 0
-329 330 342 0
339 -343 0
-340 -343 0
-339 340 343 0
-331 344 0
-341 344 0
-342 344 0
-343 344 0
331 341 342 343 -344 0
344 -346 0
-345 -346 0
-344 345 346 0
344 -348 0
345 -348 0
347 -348 0
-344 -345 -347 348 0
344 -349 0
345 -349 0
-347 -349 0
-344 -345 347 349 0
292 350 0
-314 350 0
-316 350 0
-318 350 0
-320 350 0
-346 350 0
-348 350 0
-349 350 0
-292 314 316 318 320 346 348 349 -350 0
-351 352 0
351 352 0
-354 355 0
354 355 0
353 -356 0
355 -356 0
-353 -355 356 0
353 357 0
-356 357 0
-353 356 -357 0
291 -358 0
350 -358 0
352 -358 0
357 -358 0
-291 -350 -352 -357 358 0
-259 359 0
259 359 0
253 -360 0
359 -360 0
-253 -359 360 0
-360 361 0
253 361 0
360 -253 -361 0
361 -362 0
266 -362 0
-361 -266 362 0
361 -363 0
-266 -363 0
-361 266 363 0
-362 364 0
-363 364 0
362 363 -364 0
252 -365 0
364 -365 0
-252 -364 365 0
-252 -366 0
361 -366 0
252 -361 366 0
-365 367 0
-366 367 0
365 366 -367 0
367 -368 0
-271 -368 0
-367 271 368 0
367 -369 0
271 -369 0
-367 -271 369 0
-368 370 0
-369 370 0
368 369 -370 0
251 -371 0
370 -371 0
-251 -370 371 0
-251 -372 0
367 -372 0
251 -367 372 0
-371 373 0
-372 373 0
371 372 -373 0
373 -374 0
-276 -374 0
-373 276 374 0
373 -375 0
276 -375 0
-373 -276 375 0
-374 376 0
-375 376 0
374 375 -376 0
250 -377 0
376 -377 0
-250 -376 377 0
-250 -378 0
373 -378 0
250 -373 378 0
-377 379 0
-378 379 0
377 378 -379 0
379 -380 0
-281 -380 0
-379 281 380 0
379 -381 0
281 -381 0
-379 -281 381 0
-380 382 0
-381 382 0
380 381 -382 0
249 -383 0
382 -383 0
-249 -382 383 0
379 -384 0
-285 -384 0
-379 285 384 0
379 -385 0
285 -385 0
-379 -285 385 0
-384 386 0
-385 386 0
384 385 -386 0
284 -387 0
386 -387 0
-284 -386 387 0
-284 -388 0
379 -388 0
284 -379 388 0
-387 389 0
-388 389 0
387 388 -389 0
-249 -390 0
389 -390 0
249 -389 390 0
-383 391 0
-390 391 0
383 390 -391 0
391 -392 0
-292 -392 0
-391 292 392 0
391 -393 0
292 -393 0
293 -393 0
-391 -292 -293 393 0
391 -394 0
292 -394 0
-293 -394 0
-391 -292 293 394 0
-393 395 0
-394 395 0
393 394 -395 0
395 -396 0
296 -396 0
297 -396 0
-395 -296 -297 396 0
395 -397 0
296 -397 0
-297 -397 0
-395 -296 297 397 0
-396 398 0
-397 398 0
396 397 -398 0
398 -399 0
308 -399 0
309 -399 0
-398 -308 -309 399 0
398 -400 0
308 -400 0
-309 -400 0
-398 -308 309 400 0
-399 401 0
-400 401 0
399 400 -401 0
-314 402 0
-316 402 0
-318 402 0
-320 402 0
314 316 318 320 -402 0
401 -403 0
402 -403 0
-401 -402 403 0
401 -404 0
312 -404 0
-313 -404 0
-315 -404 0
-317 -404 0
-319 -404 0
-321 -404 0
332 -404 0
-401 -312 313 315 317 319 321 -332 404 0
401 -405 0
312 -405 0
-313 -405 0
-315 -405 0
-317 -405 0
-319 -405 0
-321 -405 0
-332 -405 0
-401 -312 313 315 317 319 321 332 405 0
-404 406 0
-405 406 0
404 405 -406 0
406 -407 0
335 -407 0
336 -407 0
-406 -335 -336 407 0
406 -408 0
335 -408 0
-336 -408 0
-406 -335 336 408 0
-407 409 0
-408 409 0
407 408 -409 0
409 -410 0
339 -410 0
340 -410 0
-409 -339 -340 410 0
409 -411 0
339 -411 0
-340 -411 0
-409 -339 340 411 0
401 -412 0
312 -412 0
-313 -412 0
-315 -412 0
-317 -412 0
-319 -412 0
321 -412 0
322 -412 0
-401 -312 313 315 317 319 -321 -322 412 0
401 -413 0
312 -413 0
-313 -413 0
-315 -413 0
-317 -413 0
-319 -413 0
321 -413 0
-322 -413 0
-401 -312 313 315 317 319 -321 322 413 0
-412 414 0
-413 414 0
412 413 -414 0
414 -415 0
325 -415 0
326 -415 0
-414 -325 -326 415 0
414 -416 0
325 -416 0
-326 -416 0
-414 -325 326 416 0
-415 417 0
-416 417 0
415 416 -417 0
417 -418 0
329 -418 0
330 -418 0
-417 -329 -330 418 0
417 -419 0
329 -419 0
-330 -419 0
-417 -329 330 419 0
-410 420 0
-411 420 0
-418 420 0
-419 420 0
410 411 418 419 -420 0
-348 421 0
-349 421 0
348 349 -421 0
-346 422 0
-421 422 0
346 421 -422 0
420 -423 0
422 -423 0
-420 -422 423 0
-392 424 0
-403 424 0
-423 424 0
392 403 423 -424 0
424 -425 0
353 -425 0
355 -425 0
-424 -353 -355 425 0
424 -426 0
-353 -426 0
-424 353 426 0
-425 427 0
-426 427 0
425 426 -427 0
-259 428 0
259 428 0
253 -429 0
428 -429 0
-253 -428 429 0
-429 430 0
253 430 0
429 -253 -430 0
430 -431 0
266 -431 0
-430 -266 431 0
430 -432 0
-266 -432 0
-430 266 432 0
-431 433 0
-432 433 0
431 432 -433 0
252 -434 0
433 -434 0
-252 -433 434 0
-252 -435 0
430 -435 0
252 -430 435 0
-434 436 0
-435 436 0
434 435 -436 0
436 -437 0
-271 -437 0
-436 271 437 0
436 -438 0
271 -438 0
-436 -271 438 0
-437 439 0
-438 439 0
437 438 -439 0
251 -440 0
439 -440 0
-251 -439 440 0
-251 -441 0
436 -441 0
251 -436 441 0
-440 442 0
-441 442 0
440 441 -442 0
442 -443 0
-276 -443 0
-442 276 443 0
442 -444 0
276 -444 0
-442 -276 444 0
-443 445 0
-444 445 0
443 444 -445 0
250 -446 0
445 -446 0
-250 -445 446 0
-250 -447 0
442 -447 0
250 -442 447 0
-446 448 0
-447 448 0
446 447 -448 0
448 -449 0
-281 -449 0
-448 281 449 0
448 -450 0
281 -450 0
-448 -281 450 0
-449 451 0
-450 451 0
449 450 -451 0
249 -452 0
451 -452 0
-249 -451 452 0
448 -453 0
-285 -453 0
-448 285 453 0
448 -454 0
285 -454 0
-448 -285 454 0
-453 455 0
-454 455 0
453 454 -455 0
284 -456 0
455 -456 0
-284 -455 456 0
-284 -457 0
448 -457 0
284 -448 457 0
-456 458 0
-457 458 0
456 457 -458 0
-249 -459 0
458 -459 0
249 -458 459 0
-452 460 0
-459 460 0
452 459 -460 0
460 -461 0
-292 -461 0
-460 292 461 0
460 -462 0
292 -462 0
293 -462 0
-460 -292 -293 462 0
460 -463 0
292 -463 0
-293 -463 0
-460 -292 293 463 0
-462 464 0
-463 464 0
462 463 -464 0
464 -465 0
296 -465 0
297 -465 0
-464 -296 -297 465 0
464 -466 0
296 -466 0
-297 -466 0
-464 -296 297 466 0
-465 467 0
-466 467 0
465 466 -467 0
467 -468 0
308 -468 0
309 -468 0
-467 -308 -309 468 0
467 -469 0
308 -469 0
-309 -469 0
-467 -308 309 469 0
-468 470 0
-469 470 0
468 469 -470 0
-314 471 0
-316 471 0
-318 471 0
-320 471 0
314 316 318 320 -471 0
470 -472 0
471 -472 0
-470 -471 472 0
470 -473 0
312 -473 0
-313 -473 0
-315 -473 0
-317 -473 0
-319 -473 0
-321 -473 0
332 -473 0
-470 -312 313 315 317 319 321 -332 473 0
470 -474 0
312 -474 0
-313 -474 0
-315 -474 0
-317 -474 0
-319 -474 0
-321 -474 0
-332 -474 0
-470 -312 313 315 317 319 321 332 474 0
-473 475 0
-474 475 0
473 474 -475 0
475 -476 0
335 -476 0
336 -476 0
-475 -335 -336 476 0
475 -477 0
335 -477 0
-336 -477 0
-475 -335 336 477 0
-476 478 0
-477 478 0
476 477 -478 0
478 -479 0
339 -479 0
340 -479 0
-478 -339 -340 479 0
478 -480 0
339 -480 0
-340 -480 0
-478 -339 340 480 0
470 -481 0
312 -481 0
-313 -481 0
-315 -481 0
-317 -481 0
-319 -481 0
321 -481 0
322 -481 0
-470 -312 313 315 317 319 -321 -322 481 0
470 -482 0
312 -482 0
-313 -482 0
-315 -482 0
-317 -482 0
-319 -482 0
321 -482 0
-322 -482 0
-470 -312 313 315 317 319 -321 322 482 0
-481 483 0
-482 483 0
481 482 -483 0
483 -484 0
325 -484 0
326 -484 0
-483 -325 -326 484 0
483 -485 0
325 -485 0
-326 -485 0
-483 -325 326 485 0
-484 486 0
-485 486 0
484 485 -486 0
486 -487 0
329 -487 0
330 -487 0
-486 -329 -330 487 0
486 -488 0
329 -488 0
-330 -488 0
-486 -329 330 488 0
-479 489 0
-480 489 0
-487 489 0
-488 489 0
479 480 487 488 -489 0
-346 490 0
-421 490 0
346 421 -490 0
489 -491 0
490 -491 0
-489 -490 491 0
-461 492 0
-472 492 0
-491 492 0
461 472 491 -492 0
492 -493 0
353 -493 0
355 -493 0
-492 -353 -355 493 0
492 -494 0
-353 -494 0
-492 353 494 0
-493 495 0
-494 495 0
493 494 -495 0
-427 -180 -496 0
427 180 -496 0
-427 180 496 0
427 -180 496 0
-495 -248 -497 0
495 248 -497 0
-495 248 497 0
495 -248 497 0
-496 -498 0
-497 -498 0
358 -498 0
496 497 -358 498 0
-111 498 0
